words_hard_train/2793.qaiger
aag 81 16 0 1 65
2
4
8
14
20
24
28
34
38
52
66
76
84
94
100
154
162
6 2 4
10 7 9
12 11 4
16 13 15
18 17 4
22 19 21
26 22 25
30 26 29
32 31 4
36 33 34
40 37 38
42 35 4
44 42 31
46 40 45
48 27 4
50 48 29
54 51 52
56 49 28
58 54 57
60 47 59
62 23 4
64 63 25
68 65 66
70 62 24
72 68 71
74 18 20
78 75 76
80 78 23
82 12 14
86 83 84
88 86 17
90 6 8
92 91 11
96 92 94
98 97 2
102 98 100
104 89 102
106 81 104
108 73 106
110 60 109
112 80 105
114 113 76
116 114 107
118 105 84
120 88 103
122 118 121
124 93 94
126 125 101
128 127 103
130 123 129
132 106 67
134 131 133
136 117 135
138 72 107
140 139 66
142 140 109
144 136 143
146 110 144
148 58 108
150 46 148
152 150 145
156 153 154
158 42 30
160 156 159
162 147 161
i0 2 y1[0]
i1 2 y1[7]
i2 2 y1[1]
i3 2 y1[2]
i4 2 y1[3]
i5 2 y1[4]
i6 2 y1[5]
i7 2 y1[6]
i8 1 x1[6]
i9 1 x1[5]
i10 1 x1[4]
i11 1 x1[3]
i12 1 x1[2]
i13 1 x1[1]
i14 1 x1[0]
i15 1 x1[7]
o0 bv[0]
c
simplified
  <=
    xor
      and
        1 x1
        abs
          2 y1
      1
    1 x1
