words_hard_train/2793.qaiger.qdimacs
p cnf 81 196
a 33 38 42 77 47 50 19 26 0
e 1 2 3 4 5 6 7 8 9 10 11 12 13 14 15 16 17 18 20 21 22 23 24 25 27 28 29 30 31 32 34 35 36 37 39 40 41 43 44 45 46 48 49 51 52 53 54 55 56 57 58 59 60 61 62 63 64 65 66 67 68 69 70 71 72 73 74 75 76 78 79 80 81 0
-1 -2 3 0
1 -3 0
2 -3 0
3 4 5 0
-3 -5 0
-4 -5 0
5 -2 6 0
-5 -6 0
2 -6 0
6 7 8 0
-6 -8 0
-7 -8 0
8 -2 9 0
-8 -9 0
2 -9 0
9 10 11 0
-9 -11 0
-10 -11 0
-11 12 13 0
11 -13 0
-12 -13 0
-13 14 15 0
13 -15 0
-14 -15 0
15 -2 16 0
-15 -16 0
2 -16 0
16 -17 18 0
-16 -18 0
17 -18 0
18 -19 20 0
-18 -20 0
19 -20 0
17 -2 21 0
-17 -21 0
2 -21 0
-21 15 22 0
21 -22 0
-15 -22 0
-20 22 23 0
20 -23 0
-22 -23 0
13 -2 24 0
-13 -24 0
2 -24 0
-24 14 25 0
24 -25 0
-14 -25 0
25 -26 27 0
-25 -27 0
26 -27 0
24 -14 28 0
-24 -28 0
14 -28 0
-27 28 29 0
27 -29 0
-28 -29 0
23 29 30 0
-23 -30 0
-29 -30 0
11 -2 31 0
-11 -31 0
2 -31 0
31 12 32 0
-31 -32 0
-12 -32 0
32 -33 34 0
-32 -34 0
33 -34 0
-31 -12 35 0
31 -35 0
12 -35 0
-34 35 36 0
34 -36 0
-35 -36 0
-9 -10 37 0
9 -37 0
10 -37 0
37 -38 39 0
-37 -39 0
38 -39 0
-39 11 40 0
39 -40 0
-11 -40 0
-6 -7 41 0
6 -41 0
7 -41 0
41 -42 43 0
-41 -43 0
42 -43 0
-43 8 44 0
43 -44 0
-8 -44 0
-3 -4 45 0
3 -45 0
4 -45 0
45 5 46 0
-45 -46 0
-5 -46 0
-46 -47 48 0
46 -48 0
47 -48 0
48 -1 49 0
-48 -49 0
1 -49 0
-49 -50 51 0
49 -51 0
50 -51 0
44 -51 52 0
-44 -52 0
51 -52 0
40 -52 53 0
-40 -53 0
52 -53 0
36 -53 54 0
-36 -54 0
53 -54 0
-30 54 55 0
30 -55 0
-54 -55 0
-40 52 56 0
40 -56 0
-52 -56 0
56 -38 57 0
-56 -57 0
38 -57 0
-57 53 58 0
57 -58 0
-53 -58 0
52 -42 59 0
-52 -59 0
42 -59 0
-44 51 60 0
44 -60 0
-51 -60 0
-59 60 61 0
59 -61 0
-60 -61 0
46 -47 62 0
-46 -62 0
47 -62 0
62 50 63 0
-62 -63 0
-50 -63 0
63 51 64 0
-63 -64 0
-51 -64 0
61 64 65 0
-61 -65 0
-64 -65 0
-53 33 66 0
53 -66 0
-33 -66 0
65 66 67 0
-65 -67 0
-66 -67 0
58 67 68 0
-58 -68 0
-67 -68 0
-36 53 69 0
36 -69 0
-53 -69 0
69 -33 70 0
-69 -70 0
33 -70 0
-70 54 71 0
70 -71 0
-54 -71 0
-68 71 72 0
68 -72 0
-71 -72 0
-55 -72 73 0
55 -73 0
72 -73 0
-29 -54 74 0
29 -74 0
54 -74 0
-23 -74 75 0
23 -75 0
74 -75 0
-75 72 76 0
75 -76 0
-72 -76 0
76 -77 78 0
-76 -78 0
77 -78 0
-21 -15 79 0
21 -79 0
15 -79 0
-78 79 80 0
78 -80 0
-79 -80 0
73 80 81 0
-73 -81 0
-80 -81 0
81 0
